hp = 63000;
num_links = 9;
num_packets = 3;


% [ "t1",  "t2",  "t3",  "t4" ]
% [ CPMX,  SASC,  GATH,  ANON ]

% CPMX,  SASC,  GATH,  ANON
%task_workload = 
%[|  61760,      -1,     -1,     -1,   % P0
% |     -1,     361,     -1,     -1,   % P1
% |     -1,      -1,    202,     -1,   % P2
% |     -1,      -1,     -1,      6,   % P3
%|];

%task_deadline = 
%[|  63000,      -1,     -1,     -1,   % P0
% |     -1,   20000,     -1,     -1,   % P1
% |     -1,      -1,  40000,     -1,   % P2
% |     -1,      -1,     -1,  63000,   % P3
%|];



% f1:0 f2:0 f3:0 
deadline =  
[|  63000,      -1,      -1,    %L-0
 |  63000,      -1,      -1,    %0-1
 |  63000,      -1,      -1,    %1-L
 |    -1,    40000,      -1,    %L-1
 |    -1,    40000,      -1,    %1-2
 |    -1,    40000,      -1,    %2-L
 |    -1,       -1,   63000,    %L-2
 |    -1,       -1,   63000,    %2-3
 |    -1,       -1,   63000,    %2-L
|];

% f1:0 f2:0 f3:0
occupancy =  
[|   1600,      -1,      -1,    %L-0
 |   1600,      -1,      -1,    %0-1
 |   1600,      -1,      -1,    %1-L
 |    -1,     1024,      -1,    %L-1
 |    -1,     1024,      -1,    %1-2
 |    -1,     1024,      -1,    %2-L
 |    -1,       -1,    1024,    %L-2
 |    -1,       -1,    1024,    %2-3
 |    -1,       -1,    1024,    %2-L
|];



% f1:0 f2:0 f3:0 f4:0 f5:0 
min_start =  
[|     0,      -1,     -1,    %L-0
 |     0,      -1,     -1,    %0-1
 |     0,      -1,     -1,    %1-L
 |    -1,   20000,     -1,    %L-1
 |    -1,   20000,     -1,    %1-2
 |    -1,   20000,     -1,    %2-L
 |    -1,      -1,  40000,    %L-2
 |    -1,      -1,  40000,    %2-3
 |    -1,      -1,  40000,    %2-L
|];